// --------------------------------------------------------------------------
// Licensed Materials - Property of IBM
//
// 5725-A06 5725-A29 5724-Y48 5724-Y49 5724-Y54 5724-Y55
// Copyright IBM Corporation 1998, 2013. All Rights Reserved.
//
// Note to U.S. Government Users Restricted Rights:
// Use, duplication or disclosure restricted by GSA ADP Schedule
// Contract with IBM Corp.
// --------------------------------------------------------------------------

n = 17;
dist = [
633
257
91
412
150
80
134
259
505
353
324
70
211
268
246
121
390
661
227
488
572
530
555
289
282
638
567
466
420
745
518
228
169
112
196
154
372
262
110
437
191
74
53
472
142
383
120
77
105
175
476
324
240
27
182
239
237
84
267
351
309
338
196
61
421
346
243
199
528
297
63
34
264
360
208
329
83
105
123
364
35
29
232
444
292
297
47
150
207
332
29
249
402
250
314
68
108
165
349
36
495
352
95
189
326
383
202
236
154
578
439
336
240
685
390
435
287
184
140
542
238
254
391
448
157
301
145
202
289
55
57
426
96
483
153
336
];
